p cnf 290 692
c ind 148 150 151 152 155 161 165 180 143 144 0
c ind 145 146 147 156 158 166 157 149 163 173 0
c ind 153 154 162 164 168 169 172 138 160 170 0
c ind 176 139 159 177 181 183 142 141 184 140 0
c ind 185 186 171 174 167 175 182 179 178 1 0
c ret 237 238 239 240 241 242 243 244 245 246 0
c ret 247 248 249 250 251 252 253 254 255 256 0
c ret 257 258 259 260 261 262 263 264 265 266 0
c ret 267 268 269 270 271 272 273 274 275 276 0
c ret 277 278 279 280 281 282 283 284 285 286 0
c ret 287 288 187 188 189 190 191 192 193 194 0
c ret 195 196 197 198 199 200 201 202 203 204 0
c ret 205 206 207 208 209 210 211 212 213 214 0
c ret 215 216 217 218 219 220 221 222 223 224 0
c ret 225 226 227 228 229 230 231 232 233 234 0
c ret 235 236 0
2 -3 -102 -116 236 0
2 3 -102 -116 -236 0
-2 116 0
-2 3 236 0
-2 102 0
-2 -3 -236 0
3 4 6 0
3 6 -178 179 0
3 6 178 -179 0
-3 -6 0
-3 -4 178 179 0
-3 -4 -178 -179 0
4 -5 176 177 237 0
-4 5 0
-4 -237 0
-4 -176 0
-4 -177 0
5 174 175 0
-5 -174 0
-5 -175 0
6 -22 -229 0
6 7 -10 -22 0
-6 22 0
-6 -7 229 0
-6 10 229 0
7 -8 175 0
7 175 -223 -224 0
-7 -175 0
-7 8 223 0
-7 8 224 0
8 -9 226 0
-8 -226 0
-8 9 0
9 192 -193 -194 0
9 192 193 195 0
9 192 193 194 0
-9 -192 0
-9 -193 194 0
-9 193 -194 -195 0
10 -11 175 0
10 -11 -224 0
-8 10 -11 0
-10 11 0
8 -10 -175 224 0
11 -12 -192 0
11 13 19 192 0
-11 -19 192 0
-11 12 -192 0
-11 -13 192 0
12 -179 -228 0
12 179 228 0
-12 179 -228 0
-12 -179 228 0
13 -14 -16 179 -215 0
13 -14 -16 -179 215 0
-13 16 0
-13 179 215 0
-13 14 0
-13 -179 -215 0
14 -15 -201 0
-14 201 0
-14 15 0
15 193 194 -195 0
-15 195 0
-15 -194 0
-15 -193 0
16 -17 -18 0
-16 17 0
-16 18 0
17 192 225 0
-17 -192 0
-17 -225 0
18 196 197 -198 0
-18 198 0
-18 -197 0
-18 -196 0
14 19 20 -21 0
14 19 -20 -225 0
-14 -19 0
-19 20 21 0
-19 -20 225 0
20 -193 194 -195 0
-20 193 0
-20 -194 0
-20 195 0
21 179 -214 225 0
21 -179 214 225 0
-21 -225 0
-21 179 214 0
-21 -179 -214 0
22 -23 -67 -69 -84 0
-22 84 0
-22 23 0
-22 69 0
-22 67 0
23 24 -41 64 -172 0
23 24 -41 -64 172 0
-23 -24 0
-23 -64 -172 0
-23 41 0
-23 64 172 0
-8 24 25 0
8 24 31 0
8 24 -28 0
-8 -24 -25 0
8 -24 28 -31 0
25 26 186 204 225 0
25 26 -186 -204 225 0
-25 -225 0
-25 -186 204 0
-25 -26 0
-25 186 -204 0
26 -27 142 0
26 27 -142 0
-26 -27 -142 0
-26 27 142 0
27 193 -194 195 0
-27 -193 0
-27 194 0
-27 -195 0
28 -30 160 0
28 -29 -160 0
28 160 -209 0
-28 29 -160 0
-28 30 160 209 0
29 205 209 0
29 206 209 -212 0
29 -206 209 212 0
-29 -209 0
-29 -205 -206 -212 0
-29 -205 206 212 0
30 -205 206 212 0
-30 205 0
-30 -212 0
-30 -206 0
31 -33 -35 0
31 32 -35 -159 0
-31 35 0
-31 -32 33 0
-31 33 159 0
32 205 208 0
32 206 208 -211 0
32 -206 208 211 0
-32 -208 0
-32 -205 -206 -211 0
-32 -205 206 211 0
33 -34 205 0
33 -34 -206 0
33 -34 -211 0
-33 34 0
-33 -205 206 211 0
34 159 208 0
-34 -159 0
-34 -208 0
35 -37 -40 -182 0
35 -36 -37 -40 0
-35 40 0
-35 37 0
-35 36 182 0
36 205 231 0
36 -206 231 0
36 189 231 0
-36 -231 0
-36 -189 -205 206 0
37 -38 39 167 216 0
37 -38 39 -167 -216 0
-37 -39 0
-37 -167 216 0
-37 38 0
-37 167 -216 0
38 -141 186 -190 235 0
38 141 -186 190 -235 0
38 141 186 190 235 0
38 -141 -186 -190 -235 0
-38 -141 190 0
-38 141 -190 0
-38 186 -235 0
-38 -186 235 0
39 185 -234 0
39 -185 234 0
-39 -185 -234 0
-39 185 234 0
40 -142 -191 0
40 142 191 0
-40 142 -191 0
-40 -142 191 0
17 41 -48 -58 0
41 -42 -48 -58 0
-41 58 0
-41 48 0
-17 -41 42 0
42 -46 -47 0
42 43 -44 -47 0
-42 47 0
-42 -43 46 0
-42 44 46 0
-18 43 178 -200 -215 0
-18 43 -178 -200 215 0
18 -43 0
-43 -178 -215 0
-43 200 0
-43 178 215 0
44 -45 199 0
44 -178 199 -214 0
44 178 199 214 0
-44 -199 0
-44 45 178 -214 0
-44 45 -178 214 0
45 -196 197 -198 0
45 197 -198 -200 0
-45 198 0
-45 -197 0
-45 196 200 0
46 178 -199 213 0
46 -178 -199 -213 0
-46 199 0
-46 -178 213 0
-46 178 -213 0
47 -196 197 199 0
47 196 -197 -198 199 0
-47 -197 198 0
-47 196 197 0
-47 -199 0
-47 -196 -197 0
48 -49 -52 -55 -56 0
-48 56 0
-48 49 0
-48 55 0
-48 52 0
49 -50 -51 138 187 0
49 -50 -51 -138 -187 0
-49 51 0
-49 -138 187 0
-49 50 0
-49 138 -187 0
50 -170 -217 0
50 168 219 0
50 168 -170 0
50 -217 219 0
-50 -168 217 0
-50 170 -219 0
51 -168 -219 0
51 170 217 0
51 217 -219 0
51 -168 170 0
-51 -170 219 0
-51 168 -217 0
52 -54 194 0
52 -54 192 0
52 53 -54 0
-52 54 0
-52 -53 -192 -194 0
53 193 -195 0
-53 -193 0
-53 195 0
54 171 -236 -237 0
54 -229 -236 -237 0
-54 237 0
-54 236 0
-54 -171 229 0
55 -153 154 -202 203 0
55 153 -154 202 -203 0
55 153 154 202 203 0
55 -153 -154 -202 -203 0
-55 -153 202 0
-55 153 -202 0
-55 154 -203 0
-55 -154 203 0
56 -57 229 0
-5 56 -171 -229 0
-56 57 229 0
5 -56 -229 0
-56 171 -229 0
57 -181 -230 0
57 181 230 0
-57 181 -230 0
-57 -181 230 0
58 59 -62 -225 0
58 59 -61 -62 0
-58 62 0
-58 -59 0
-58 61 225 0
59 60 -229 0
59 181 -223 -229 0
59 -181 223 -229 0
-59 229 0
-59 -60 -181 -223 0
-59 -60 181 223 0
60 224 -225 0
60 -225 -234 0
60 223 -225 0
-60 225 0
-60 -223 -224 234 0
61 -227 -228 0
61 227 228 0
-61 227 -228 0
-61 -227 228 0
-17 62 -63 0
62 -63 -178 -227 0
62 -63 178 227 0
-62 63 0
17 -62 178 -227 0
17 -62 -178 227 0
63 -164 169 -213 218 0
63 164 -169 213 -218 0
63 164 169 213 218 0
63 -164 -169 -213 -218 0
-63 -164 213 0
-63 164 -213 0
-63 169 -218 0
-63 -169 218 0
64 65 221 0
64 -65 226 0
-64 -65 -226 0
-64 65 -221 0
-17 65 -199 0
-17 -18 65 -66 0
17 -65 0
18 -65 199 0
-65 66 199 0
66 200 -201 0
66 -200 201 0
-66 -200 -201 0
-66 200 201 0
67 68 182 0
8 36 67 68 0
-67 -68 0
-36 -67 -182 0
-8 -67 -182 0
68 -140 189 -207 0
-8 68 -140 -207 0
-68 140 0
-68 207 0
8 -68 -189 0
8 69 -77 0
-8 69 -70 -76 0
-8 -69 70 0
8 -69 77 0
-8 -69 76 0
70 71 72 -75 139 0
70 -71 72 -75 -139 0
-70 -72 0
-70 -71 139 0
-70 75 0
-70 71 -139 0
71 -193 -194 0
71 -194 195 0
-71 194 0
-71 193 -195 0
72 184 -201 0
72 -184 201 0
72 -74 184 0
72 -73 -184 0
-72 74 184 201 0
-72 73 -184 -201 0
73 167 -214 225 0
73 -167 214 225 0
-73 -225 0
-73 167 214 0
-73 -167 -214 0
-16 74 167 -215 0
-16 74 -167 215 0
16 -74 0
-74 167 215 0
-74 -167 -215 0
-15 75 -183 185 225 0
-15 75 -183 -185 -225 0
15 75 183 185 225 0
15 75 183 -185 -225 0
-15 -75 183 0
15 -75 -183 0
-75 -185 225 0
-75 185 -225 0
76 -141 -199 0
76 141 199 0
-76 141 -199 0
-76 -141 199 0
77 78 -79 184 233 0
77 78 -79 -184 -233 0
-77 -78 0
-77 184 -233 0
-77 79 0
-77 -184 233 0
78 -162 211 0
-78 162 0
-78 -211 0
79 -80 -83 163 212 0
79 -80 -83 -163 -212 0
-79 83 0
-79 -163 212 0
-79 80 0
-79 163 -212 0
80 81 82 139 188 0
80 81 82 -139 -188 0
-80 -81 0
-80 -139 188 0
-80 -82 0
-80 139 -188 0
81 140 -189 0
-81 -140 0
-81 189 0
82 183 -232 0
-82 -183 0
-82 232 0
83 -162 -232 0
83 183 211 0
83 211 -232 0
83 -162 183 0
-83 -183 232 0
-83 162 -211 0
84 85 86 -87 176 0
84 85 -86 -87 -176 0
-84 87 0
-84 -86 176 0
-84 -85 0
-84 86 -176 0
85 -177 -229 0
9 85 -177 226 0
9 85 177 -226 229 0
-85 177 -229 0
-85 -177 -226 229 0
-9 -85 229 0
-85 177 226 0
86 -225 229 0
-65 86 229 0
-86 -229 0
65 -86 225 0
87 101 173 -225 0
87 -88 -101 -173 0
87 -101 -173 -225 0
87 -88 101 173 0
-87 -101 173 0
-87 101 -173 0
-87 88 225 0
88 -89 -90 -95 96 0
88 89 -90 95 96 0
-88 -96 0
-88 -89 95 0
-88 90 0
-88 89 -95 0
89 194 195 0
89 193 -194 -195 0
-89 -194 195 0
-89 -193 -195 0
-89 194 -195 0
90 91 92 93 -94 0
90 91 -92 -93 -94 0
90 -91 -92 -93 94 0
90 -91 92 93 94 0
-90 -91 -94 0
-90 91 94 0
-90 -92 93 0
-90 92 -93 0
91 195 0
91 -193 -194 0
-91 194 -195 0
-91 193 -195 0
92 193 194 195 0
-92 -193 0
-92 -195 0
-92 -194 0
93 196 197 198 0
-93 -196 0
-93 -198 0
-93 -197 0
94 197 -198 0
94 196 -198 0
-94 198 0
-94 -196 -197 0
95 197 198 0
95 196 -197 -198 0
-95 -197 198 0
-95 -196 -198 0
-95 197 -198 0
96 97 -99 0
96 -97 99 0
-96 -97 -99 0
-96 97 99 0
97 -98 -196 0
97 98 196 0
-97 -98 196 0
-97 98 -196 0
98 197 198 0
-98 -197 0
-98 -198 0
99 -100 -193 0
99 100 193 0
-99 -100 193 0
-99 100 -193 0
100 194 195 0
-100 -194 0
-100 -195 0
65 101 -222 0
-65 101 -204 0
65 -101 222 0
-65 -101 204 0
-77 102 -103 -107 -111 0
-102 111 0
77 -102 0
-102 107 0
-102 103 0
-63 103 -104 -105 -106 0
-103 106 0
63 -103 0
-103 105 0
-103 104 0
104 -165 176 -214 225 0
104 165 -176 214 -225 0
104 165 176 214 225 0
104 -165 -176 -214 -225 0
-104 -165 214 0
-104 165 -214 0
-104 176 -225 0
-104 -176 225 0
105 -173 -197 0
105 148 222 0
105 148 -173 0
105 -197 222 0
-105 -148 197 0
-105 173 -222 0
106 151 152 0
106 -200 -201 0
106 151 -201 0
106 152 -200 0
-106 -151 200 0
-106 -152 201 0
107 -108 -110 177 226 0
107 -108 -110 -177 -226 0
-107 110 0
-107 -177 226 0
-107 108 0
-107 177 -226 0
108 -109 -172 -221 0
108 -109 172 221 0
-108 109 0
-108 -172 221 0
-108 172 -221 0
109 -182 224 0
109 -175 231 0
109 -175 -182 0
109 224 231 0
-109 182 -231 0
-109 175 -224 0
110 -151 -210 0
110 161 200 0
110 200 -210 0
110 -151 161 0
-110 -161 210 0
-110 151 -200 0
111 -112 -113 174 223 0
111 -112 -113 -174 -223 0
-111 113 0
-111 -174 223 0
-111 112 0
-111 174 -223 0
112 -148 -222 0
112 173 197 0
112 197 -222 0
112 -148 173 0
-112 -173 222 0
-112 148 -197 0
113 114 115 157 206 0
113 114 115 -157 -206 0
-113 -114 0
-113 -157 206 0
-113 -115 0
-113 157 -206 0
114 -182 231 0
-114 182 0
-114 -231 0
115 152 -201 0
-115 -152 0
-115 201 0
-37 -49 116 -117 -122 0
-116 122 0
37 -116 0
-116 117 0
49 -116 0
117 -118 -119 159 208 0
117 -118 -119 -159 -208 0
-117 119 0
-117 -159 208 0
-117 118 0
-117 159 -208 0
118 -171 180 -220 229 0
118 171 -180 220 -229 0
118 171 180 220 229 0
118 -171 -180 -220 -229 0
-118 -171 220 0
-118 171 -220 0
-118 180 -229 0
-118 -180 229 0
119 120 -121 143 192 0
119 120 -121 -143 -192 0
-119 -120 0
-119 143 -192 0
-119 121 0
-119 -143 192 0
120 149 -198 0
120 -149 198 0
-120 -149 -198 0
-120 149 198 0
121 -146 158 -195 207 0
121 146 -158 195 -207 0
121 146 158 195 207 0
121 -146 -158 -195 -207 0
-121 -146 195 0
-121 146 -195 0
-121 158 -207 0
-121 -158 207 0
122 -123 -128 -131 -134 0
-122 134 0
-122 123 0
-122 131 0
-122 128 0
123 -124 -125 -126 0
-123 124 0
-123 125 0
-123 126 0
124 -161 194 0
124 -145 210 0
124 -145 -161 0
124 194 210 0
-124 161 -210 0
-124 145 -194 0
125 -156 -199 0
125 150 205 0
125 150 -156 0
125 -199 205 0
-125 -150 199 0
-125 156 -205 0
126 127 155 204 -237 0
126 127 -155 -204 -237 0
-126 -127 0
-126 -155 204 0
-126 237 0
-126 155 -204 0
127 -175 224 0
-127 175 0
-127 -224 0
128 129 130 144 193 0
128 129 130 -144 -193 0
-128 -129 0
-128 -144 193 0
-128 -130 0
-128 144 -193 0
129 147 -196 0
-129 -147 0
-129 196 0
130 -140 189 0
-130 140 0
-130 -189 0
131 -132 133 -196 0
131 -132 133 147 0
-131 132 0
-131 -133 0
-131 -147 196 0
132 -150 -205 0
132 156 199 0
132 199 -205 0
132 -150 156 0
-132 -156 205 0
-132 150 -199 0
133 -145 194 0
-133 145 0
-133 -194 0
-55 -57 134 -135 -136 0
-134 136 0
55 -134 0
-134 135 0
57 -134 0
135 -178 -227 0
135 178 227 0
-135 178 -227 0
-135 -178 227 0
-40 136 -137 179 228 0
-40 136 -137 -179 -228 0
-136 137 0
-136 -179 228 0
40 -136 0
-136 179 -228 0
137 -160 166 -209 215 0
137 160 -166 209 -215 0
137 160 166 209 215 0
137 -160 -166 -209 -215 0
-137 -160 209 0
-137 160 -209 0
-137 166 -215 0
-137 -166 215 0
1 2 0
-1 -2 0
289 0

